100 100 100
50
82 93 48
100 66 49
7 95 73
94 96 35
69 80 48
18 92 79
89 75 7
95 87 19
68 39 83
99 94 21
78 94 46
15 91 86
79 78 32
33 94 95
43 12 26
42 84 96
37 84 67
94 66 42
95 84 40
73 79 1
99 69 85
86 78 2
96 99 48
79 96 20
90 43 82
67 25 91
67 86 40
99 89 1
77 93 41
89 87 50
85 10 88
1 38 1
42 45 32
85 80 23
95 73 23
100 71 8
34 72 83
32 8 27
68 93 40
79 74 47
78 88 3
69 9 72
86 77 6
37 49 42
7 48 2
87 20 72
84 11 97
100 84 26
82 86 5
90 72 16
